c A SAT instance generated from a 3-CNF formula that had 32 clauses and 8 variables
p cnf 8 32
-8 -7 2 0
-4 -2 3 0
5 -4 -6 0
-3 5 -4 0
-8 6 -5 0
7 -6 2 0
-3 -4 -8 0
-1 -8 4 0
-5 -8 -3 0
-3 -1 -2 0
-8 7 -1 0
-3 -1 6 0
1 -3 -2 0
5 -2 1 0
-1 -4 7 0
-6 7 2 0
4 -8 -1 0
2 -6 -8 0
-5 3 1 0
7 6 2 0
5 -7 -8 0
-1 8 3 0
8 2 3 0
2 -4 -8 0
6 8 -2 0
-1 -7 2 0
-1 3 -4 0
3 4 -7 0
-5 8 1 0
-2 5 6 0
7 -8 -3 0
-1 -3 -7 0
